letting presetvals be [
    [-1, 5,-1,-2,-1, 5,-1],
    [-1,-2,-1, 1,-1,-2,-1],
    [-1,-2,-1,-2,-1,-2,-1],
    [-1,-1,-1,-2,-1,-1,-1],
    [-2, 2,-2,-2,-2, 3,-2],
    [-1,-1,-1,-2,-1,-1,-1],
    [ 9,-2,-1, 1,-1,-2,-1],
    [-1,-2,-1,-2, 3,-2, 1],
    [-1, 6,-1,-2,-1,-1,-1]
]
letting op be [1,2,3,3,3,1,3,3,3,2,2,1,1,1,1,3,3,3,3,3]
